c 
c MolecularSimulation 1.0.1
c Simulation written: Tue May  1 09:59:46 2012
c Test: Ogihara-Ray
c Input: ./data/example/example_N4_M3.cnf
c 
s SATISFIABLE
v -1 -2 -3 -4 0
c algorithmType:  Ogihara-Ray
c algorithmTime:  0
c solutionMemory: 13
c mixCount:       8
c extractCount:   15
c appendCount:    4
c splitCount:     2
c spliceCount:    0
c purifyCount:    5
c numVar:         4
c numClause:      3
c 
